        # -- NAME & LABEL --

SystemName       DOS_calculation
SystemLabel      graphene     



        # -- MATERIAL --

NumberOfAtoms    2
NumberOfSpecies  1

%block ChemicalSpeciesLabel
    1    6  C
%endblock ChemicalSpeciesLabel



       # -- CELL & ATOMIC POSITIONS

LatticeConstant 1.0 Ang
%block LatticeParameters
  2.460000  2.460000  20.000000  90.000000  90.000000  120.000000
%endblock LatticeParameters

AtomicCoordinatesFormat NotScaledCartesianAng
%block AtomicCoordinatesAndAtomicSpecies
     0.000000000     0.000000000     9.700000000    1
    -0.000012300     1.420288764     9.700000000    1
%endblock AtomicCoordinatesAndAtomicSpecies



       # --MONKHORST PACK --

%block kgrid_Monkhorst_Pack
18   0   0      0
0    18   0     0
0    0   1      0
%endblock kgrid_Monkhorst_Pack



       # --SELF CONSISTENT FIELD - -

MeshCutoff           200.0 Ry
PAO.BasisSize        DZP    # or DZP
PAO.BasisType        split
SolutionMethod       diagon
XC.authors           PBE        
XC.functional        GGA
MaxSCFIterations     200
DM.Tolerance         1.d-6    # 0.01 eV
DM.MixingWeight      0.05   
DM.NumberPulay       5  



       # --MOLECULAR DYNAMICS or CONJUGATE GRADIENT METHOD --       
                                                                                            
MD.TypeOfRun         cg     # cg: stuctural optimization
MD.NumCGsteps        0    # maximum number of cg minimization moves
MD.MaxCGDispl        0.05  Ang   
MD.MaxForceTol       0.02 eV/Ang
MD.VariableCell      T      # T: true, cell relaxation; otherwise: F
MD.ConstantVolume    F   

MD.UseSaveXV         T      # read the atomic positions stored in the SystemLabel.XV file
MD.UseSaveCG         F      # read the cg history information stored in the SystemLabel.CG file; used for continuation of the interrupted CG runs
WriteMDHistory       T      # store the atomic coordinates and energy,temperature, etc. in the SystemLabel.MD and SystemLabel.MDE



       # -- SPIN --

SpinPolarized        F      #If spin polarized, use T
DM.InitSpinAF        F      #gives the antiferromagnetic order if T, otherwise all spin up if F



       # -- SAVING DENSITY MATRIX FOR POST RUN --

ON.UseSAVELWF        F
DM.UseSaveDM         F
UseSaveData          F
LongOutput           T



       # -- PROJECTED DOS & BAND STRUCTURE --

%block ProjectedDensityOfStates      #to write the Total DOS and PDOS on the basis orbitals, between two given energies
-15.00 15.00 0.1 500 eV              # energy window from -15 to 15 eV; with gaussian smearing of 0.1 eV; 500 points in the histogram.
%endblock ProjectedDensityOfStates

%block PDOS.kgrid_Monkhorst_Pack
    64   0   0      0
    0    64   0     0
    0    0   1      0
%endblock block PDOS.kgrid_Monkhorst_Pack

BandLinesScale       ReciprocalLatticeVectors
%block BandLines
1     0.000000  0.000000  0.000000    \Gamma
100   0.000000  0.500000  0.000000    M
100   -0.333333 0.666666  0.000000    K
100   0.000000  0.000000  0.000000    \Gamma
%endblock BandLines



       # --Others--

WriteHirshfeldPop   T
WriteVoronoiPop     T
WriteMullikenPop    1

